clingo version 5.5.2
Reading from ...nt/beegfs/home/jubruns/encoding/mif.lp ...
Solving...
Answer: 1
move(1,(6,19),(7,19),1) move(1,(7,19),(8,19),2) move(1,(8,19),(9,19),3) move(1,(9,19),(10,19),4) move(1,(10,19),(11,19),5) move(1,(11,19),(12,19),6) move(1,(12,19),(13,19),7) move(1,(13,19),(14,19),8) move(1,(14,19),(15,19),9) move(1,(15,19),(16,19),10) move(1,(16,19),(16,18),11) move(1,(16,18),(16,17),12) move(1,(16,17),(16,16),13) move(1,(16,16),(16,15),14) move(1,(16,15),(16,14),15) move(1,(16,14),(16,13),16) move(1,(16,13),(17,13),17) move(1,(17,13),(18,13),18) move(1,(18,13),(19,13),19) move(1,(19,13),(20,13),20) move(1,(20,13),(21,13),21) move(1,(21,13),(21,12),22) move(1,(21,12),(21,11),23) move(1,(21,11),(21,10),24) move(1,(21,10),(21,9),25) move(1,(21,9),(21,8),26) move(1,(21,8),(21,7),27) move(1,(21,7),(22,7),28) move(1,(22,7),(22,6),29) move(2,(1,14),(2,14),3) move(2,(2,14),(3,14),4) move(2,(3,14),(4,14),5) move(2,(4,14),(4,15),6) move(2,(4,15),(4,16),7) move(2,(4,16),(5,16),8) move(2,(5,16),(4,16),9) move(2,(4,16),(4,15),10) move(2,(4,15),(4,16),11) move(2,(4,16),(5,16),12) move(2,(5,16),(6,16),13) move(2,(6,16),(7,16),14) move(2,(7,16),(8,16),16) move(2,(8,16),(8,15),17) move(2,(8,15),(8,16),18) move(2,(8,16),(7,16),19) move(2,(7,16),(7,17),21) move(2,(7,17),(7,18),22) move(2,(7,18),(7,19),23) move(2,(7,19),(6,19),24) move(2,(6,19),(5,19),25) move(2,(5,19),(4,19),26) move(2,(4,19),(3,19),27) move(2,(3,19),(2,19),28) move(2,(2,19),(1,19),29)
SATISFIABLE

Models       : 1+
Calls        : 1
Time         : 0.726s (Solving: 0.02s 1st Model: 0.02s Unsat: 0.00s)
CPU Time     : 0.700s

Choices      : 32       (Domain: 32)
Conflicts    : 6        (Analyzed: 6)
Restarts     : 0       
Model-Level  : 22.0    
Problems     : 1        (Average Length: 0.00 Splits: 0)
Lemmas       : 6        (Deleted: 0)
  Binary     : 2        (Ratio:  33.33%)
  Ternary    : 0        (Ratio:   0.00%)
  Conflict   : 6        (Average Length:   18.5 Ratio: 100.00%) 
  Loop       : 0        (Average Length:    0.0 Ratio:   0.00%) 
  Other      : 0        (Average Length:    0.0 Ratio:   0.00%) 
Backjumps    : 6        (Average:  1.67 Max:   4 Sum:     10)
  Executed   : 6        (Average:  1.67 Max:   4 Sum:     10 Ratio: 100.00%)
  Bounded    : 0        (Average:  0.00 Max:   0 Sum:      0 Ratio:   0.00%)

Rules        : 277540   (Original: 238039)
  Choice     : 58      
  Heuristic  : 9834     (Original: 9842)
Atoms        : 150448   (Original: 135612 Auxiliary: 14836)
Bodies       : 167122   (Original: 142497)
  Count      : 66       (Original: 174)
Equivalences : 90155    (Atom=Atom: 64 Body=Body: 68 Other: 90023)
Tight        : Yes
Variables    : 182375   (Eliminated:    0 Frozen: 80727)
Constraints  : 407143   (Binary:  78.4% Ternary:  19.6% Other:   1.9%)

